c *********************************
c * Circuit generated by BenCGen
c *
c * Parity_304
c *
c * Ports with 1 gate(s): 1
c * Ports with 2 gate(s): 304
c * Total gates: 305
c *********************************
p cnf 609 1217
1 307 0
-1 -307 0
1 -306 0
307 -306 0
-1 -307 306 0
1 2 -308 0
-1 2 308 0
1 -2 308 0
-1 -2 -308 0
3 4 -309 0
-3 4 309 0
3 -4 309 0
-3 -4 -309 0
5 6 -310 0
-5 6 310 0
5 -6 310 0
-5 -6 -310 0
7 8 -311 0
-7 8 311 0
7 -8 311 0
-7 -8 -311 0
9 10 -312 0
-9 10 312 0
9 -10 312 0
-9 -10 -312 0
11 12 -313 0
-11 12 313 0
11 -12 313 0
-11 -12 -313 0
13 14 -314 0
-13 14 314 0
13 -14 314 0
-13 -14 -314 0
15 16 -315 0
-15 16 315 0
15 -16 315 0
-15 -16 -315 0
17 18 -316 0
-17 18 316 0
17 -18 316 0
-17 -18 -316 0
19 20 -317 0
-19 20 317 0
19 -20 317 0
-19 -20 -317 0
21 22 -318 0
-21 22 318 0
21 -22 318 0
-21 -22 -318 0
23 24 -319 0
-23 24 319 0
23 -24 319 0
-23 -24 -319 0
25 26 -320 0
-25 26 320 0
25 -26 320 0
-25 -26 -320 0
27 28 -321 0
-27 28 321 0
27 -28 321 0
-27 -28 -321 0
29 30 -322 0
-29 30 322 0
29 -30 322 0
-29 -30 -322 0
31 32 -323 0
-31 32 323 0
31 -32 323 0
-31 -32 -323 0
33 34 -324 0
-33 34 324 0
33 -34 324 0
-33 -34 -324 0
35 36 -325 0
-35 36 325 0
35 -36 325 0
-35 -36 -325 0
37 38 -326 0
-37 38 326 0
37 -38 326 0
-37 -38 -326 0
39 40 -327 0
-39 40 327 0
39 -40 327 0
-39 -40 -327 0
41 42 -328 0
-41 42 328 0
41 -42 328 0
-41 -42 -328 0
43 44 -329 0
-43 44 329 0
43 -44 329 0
-43 -44 -329 0
45 46 -330 0
-45 46 330 0
45 -46 330 0
-45 -46 -330 0
47 48 -331 0
-47 48 331 0
47 -48 331 0
-47 -48 -331 0
49 50 -332 0
-49 50 332 0
49 -50 332 0
-49 -50 -332 0
51 52 -333 0
-51 52 333 0
51 -52 333 0
-51 -52 -333 0
53 54 -334 0
-53 54 334 0
53 -54 334 0
-53 -54 -334 0
55 56 -335 0
-55 56 335 0
55 -56 335 0
-55 -56 -335 0
57 58 -336 0
-57 58 336 0
57 -58 336 0
-57 -58 -336 0
59 60 -337 0
-59 60 337 0
59 -60 337 0
-59 -60 -337 0
61 62 -338 0
-61 62 338 0
61 -62 338 0
-61 -62 -338 0
63 64 -339 0
-63 64 339 0
63 -64 339 0
-63 -64 -339 0
65 66 -340 0
-65 66 340 0
65 -66 340 0
-65 -66 -340 0
67 68 -341 0
-67 68 341 0
67 -68 341 0
-67 -68 -341 0
69 70 -342 0
-69 70 342 0
69 -70 342 0
-69 -70 -342 0
71 72 -343 0
-71 72 343 0
71 -72 343 0
-71 -72 -343 0
73 74 -344 0
-73 74 344 0
73 -74 344 0
-73 -74 -344 0
75 76 -345 0
-75 76 345 0
75 -76 345 0
-75 -76 -345 0
77 78 -346 0
-77 78 346 0
77 -78 346 0
-77 -78 -346 0
79 80 -347 0
-79 80 347 0
79 -80 347 0
-79 -80 -347 0
81 82 -348 0
-81 82 348 0
81 -82 348 0
-81 -82 -348 0
83 84 -349 0
-83 84 349 0
83 -84 349 0
-83 -84 -349 0
85 86 -350 0
-85 86 350 0
85 -86 350 0
-85 -86 -350 0
87 88 -351 0
-87 88 351 0
87 -88 351 0
-87 -88 -351 0
89 90 -352 0
-89 90 352 0
89 -90 352 0
-89 -90 -352 0
91 92 -353 0
-91 92 353 0
91 -92 353 0
-91 -92 -353 0
93 94 -354 0
-93 94 354 0
93 -94 354 0
-93 -94 -354 0
95 96 -355 0
-95 96 355 0
95 -96 355 0
-95 -96 -355 0
97 98 -356 0
-97 98 356 0
97 -98 356 0
-97 -98 -356 0
99 100 -357 0
-99 100 357 0
99 -100 357 0
-99 -100 -357 0
101 102 -358 0
-101 102 358 0
101 -102 358 0
-101 -102 -358 0
103 104 -359 0
-103 104 359 0
103 -104 359 0
-103 -104 -359 0
105 106 -360 0
-105 106 360 0
105 -106 360 0
-105 -106 -360 0
107 108 -361 0
-107 108 361 0
107 -108 361 0
-107 -108 -361 0
109 110 -362 0
-109 110 362 0
109 -110 362 0
-109 -110 -362 0
111 112 -363 0
-111 112 363 0
111 -112 363 0
-111 -112 -363 0
113 114 -364 0
-113 114 364 0
113 -114 364 0
-113 -114 -364 0
115 116 -365 0
-115 116 365 0
115 -116 365 0
-115 -116 -365 0
117 118 -366 0
-117 118 366 0
117 -118 366 0
-117 -118 -366 0
119 120 -367 0
-119 120 367 0
119 -120 367 0
-119 -120 -367 0
121 122 -368 0
-121 122 368 0
121 -122 368 0
-121 -122 -368 0
123 124 -369 0
-123 124 369 0
123 -124 369 0
-123 -124 -369 0
125 126 -370 0
-125 126 370 0
125 -126 370 0
-125 -126 -370 0
127 128 -371 0
-127 128 371 0
127 -128 371 0
-127 -128 -371 0
129 130 -372 0
-129 130 372 0
129 -130 372 0
-129 -130 -372 0
131 132 -373 0
-131 132 373 0
131 -132 373 0
-131 -132 -373 0
133 134 -374 0
-133 134 374 0
133 -134 374 0
-133 -134 -374 0
135 136 -375 0
-135 136 375 0
135 -136 375 0
-135 -136 -375 0
137 138 -376 0
-137 138 376 0
137 -138 376 0
-137 -138 -376 0
139 140 -377 0
-139 140 377 0
139 -140 377 0
-139 -140 -377 0
141 142 -378 0
-141 142 378 0
141 -142 378 0
-141 -142 -378 0
143 144 -379 0
-143 144 379 0
143 -144 379 0
-143 -144 -379 0
145 146 -380 0
-145 146 380 0
145 -146 380 0
-145 -146 -380 0
147 148 -381 0
-147 148 381 0
147 -148 381 0
-147 -148 -381 0
149 150 -382 0
-149 150 382 0
149 -150 382 0
-149 -150 -382 0
151 152 -383 0
-151 152 383 0
151 -152 383 0
-151 -152 -383 0
153 154 -384 0
-153 154 384 0
153 -154 384 0
-153 -154 -384 0
155 156 -385 0
-155 156 385 0
155 -156 385 0
-155 -156 -385 0
157 158 -386 0
-157 158 386 0
157 -158 386 0
-157 -158 -386 0
159 160 -387 0
-159 160 387 0
159 -160 387 0
-159 -160 -387 0
161 162 -388 0
-161 162 388 0
161 -162 388 0
-161 -162 -388 0
163 164 -389 0
-163 164 389 0
163 -164 389 0
-163 -164 -389 0
165 166 -390 0
-165 166 390 0
165 -166 390 0
-165 -166 -390 0
167 168 -391 0
-167 168 391 0
167 -168 391 0
-167 -168 -391 0
169 170 -392 0
-169 170 392 0
169 -170 392 0
-169 -170 -392 0
171 172 -393 0
-171 172 393 0
171 -172 393 0
-171 -172 -393 0
173 174 -394 0
-173 174 394 0
173 -174 394 0
-173 -174 -394 0
175 176 -395 0
-175 176 395 0
175 -176 395 0
-175 -176 -395 0
177 178 -396 0
-177 178 396 0
177 -178 396 0
-177 -178 -396 0
179 180 -397 0
-179 180 397 0
179 -180 397 0
-179 -180 -397 0
181 182 -398 0
-181 182 398 0
181 -182 398 0
-181 -182 -398 0
183 184 -399 0
-183 184 399 0
183 -184 399 0
-183 -184 -399 0
185 186 -400 0
-185 186 400 0
185 -186 400 0
-185 -186 -400 0
187 188 -401 0
-187 188 401 0
187 -188 401 0
-187 -188 -401 0
189 190 -402 0
-189 190 402 0
189 -190 402 0
-189 -190 -402 0
191 192 -403 0
-191 192 403 0
191 -192 403 0
-191 -192 -403 0
193 194 -404 0
-193 194 404 0
193 -194 404 0
-193 -194 -404 0
195 196 -405 0
-195 196 405 0
195 -196 405 0
-195 -196 -405 0
197 198 -406 0
-197 198 406 0
197 -198 406 0
-197 -198 -406 0
199 200 -407 0
-199 200 407 0
199 -200 407 0
-199 -200 -407 0
201 202 -408 0
-201 202 408 0
201 -202 408 0
-201 -202 -408 0
203 204 -409 0
-203 204 409 0
203 -204 409 0
-203 -204 -409 0
205 206 -410 0
-205 206 410 0
205 -206 410 0
-205 -206 -410 0
207 208 -411 0
-207 208 411 0
207 -208 411 0
-207 -208 -411 0
209 210 -412 0
-209 210 412 0
209 -210 412 0
-209 -210 -412 0
211 212 -413 0
-211 212 413 0
211 -212 413 0
-211 -212 -413 0
213 214 -414 0
-213 214 414 0
213 -214 414 0
-213 -214 -414 0
215 216 -415 0
-215 216 415 0
215 -216 415 0
-215 -216 -415 0
217 218 -416 0
-217 218 416 0
217 -218 416 0
-217 -218 -416 0
219 220 -417 0
-219 220 417 0
219 -220 417 0
-219 -220 -417 0
221 222 -418 0
-221 222 418 0
221 -222 418 0
-221 -222 -418 0
223 224 -419 0
-223 224 419 0
223 -224 419 0
-223 -224 -419 0
225 226 -420 0
-225 226 420 0
225 -226 420 0
-225 -226 -420 0
227 228 -421 0
-227 228 421 0
227 -228 421 0
-227 -228 -421 0
229 230 -422 0
-229 230 422 0
229 -230 422 0
-229 -230 -422 0
231 232 -423 0
-231 232 423 0
231 -232 423 0
-231 -232 -423 0
233 234 -424 0
-233 234 424 0
233 -234 424 0
-233 -234 -424 0
235 236 -425 0
-235 236 425 0
235 -236 425 0
-235 -236 -425 0
237 238 -426 0
-237 238 426 0
237 -238 426 0
-237 -238 -426 0
239 240 -427 0
-239 240 427 0
239 -240 427 0
-239 -240 -427 0
241 242 -428 0
-241 242 428 0
241 -242 428 0
-241 -242 -428 0
243 244 -429 0
-243 244 429 0
243 -244 429 0
-243 -244 -429 0
245 246 -430 0
-245 246 430 0
245 -246 430 0
-245 -246 -430 0
247 248 -431 0
-247 248 431 0
247 -248 431 0
-247 -248 -431 0
249 250 -432 0
-249 250 432 0
249 -250 432 0
-249 -250 -432 0
251 252 -433 0
-251 252 433 0
251 -252 433 0
-251 -252 -433 0
253 254 -434 0
-253 254 434 0
253 -254 434 0
-253 -254 -434 0
255 256 -435 0
-255 256 435 0
255 -256 435 0
-255 -256 -435 0
257 258 -436 0
-257 258 436 0
257 -258 436 0
-257 -258 -436 0
259 260 -437 0
-259 260 437 0
259 -260 437 0
-259 -260 -437 0
261 262 -438 0
-261 262 438 0
261 -262 438 0
-261 -262 -438 0
263 264 -439 0
-263 264 439 0
263 -264 439 0
-263 -264 -439 0
265 266 -440 0
-265 266 440 0
265 -266 440 0
-265 -266 -440 0
267 268 -441 0
-267 268 441 0
267 -268 441 0
-267 -268 -441 0
269 270 -442 0
-269 270 442 0
269 -270 442 0
-269 -270 -442 0
271 272 -443 0
-271 272 443 0
271 -272 443 0
-271 -272 -443 0
273 274 -444 0
-273 274 444 0
273 -274 444 0
-273 -274 -444 0
275 276 -445 0
-275 276 445 0
275 -276 445 0
-275 -276 -445 0
277 278 -446 0
-277 278 446 0
277 -278 446 0
-277 -278 -446 0
279 280 -447 0
-279 280 447 0
279 -280 447 0
-279 -280 -447 0
281 282 -448 0
-281 282 448 0
281 -282 448 0
-281 -282 -448 0
283 284 -449 0
-283 284 449 0
283 -284 449 0
-283 -284 -449 0
285 286 -450 0
-285 286 450 0
285 -286 450 0
-285 -286 -450 0
287 288 -451 0
-287 288 451 0
287 -288 451 0
-287 -288 -451 0
289 290 -452 0
-289 290 452 0
289 -290 452 0
-289 -290 -452 0
291 292 -453 0
-291 292 453 0
291 -292 453 0
-291 -292 -453 0
293 294 -454 0
-293 294 454 0
293 -294 454 0
-293 -294 -454 0
295 296 -455 0
-295 296 455 0
295 -296 455 0
-295 -296 -455 0
297 298 -456 0
-297 298 456 0
297 -298 456 0
-297 -298 -456 0
299 300 -457 0
-299 300 457 0
299 -300 457 0
-299 -300 -457 0
301 302 -458 0
-301 302 458 0
301 -302 458 0
-301 -302 -458 0
303 304 -459 0
-303 304 459 0
303 -304 459 0
-303 -304 -459 0
308 309 -460 0
-308 309 460 0
308 -309 460 0
-308 -309 -460 0
310 311 -461 0
-310 311 461 0
310 -311 461 0
-310 -311 -461 0
312 313 -462 0
-312 313 462 0
312 -313 462 0
-312 -313 -462 0
314 315 -463 0
-314 315 463 0
314 -315 463 0
-314 -315 -463 0
316 317 -464 0
-316 317 464 0
316 -317 464 0
-316 -317 -464 0
318 319 -465 0
-318 319 465 0
318 -319 465 0
-318 -319 -465 0
320 321 -466 0
-320 321 466 0
320 -321 466 0
-320 -321 -466 0
322 323 -467 0
-322 323 467 0
322 -323 467 0
-322 -323 -467 0
324 325 -468 0
-324 325 468 0
324 -325 468 0
-324 -325 -468 0
326 327 -469 0
-326 327 469 0
326 -327 469 0
-326 -327 -469 0
328 329 -470 0
-328 329 470 0
328 -329 470 0
-328 -329 -470 0
330 331 -471 0
-330 331 471 0
330 -331 471 0
-330 -331 -471 0
332 333 -472 0
-332 333 472 0
332 -333 472 0
-332 -333 -472 0
334 335 -473 0
-334 335 473 0
334 -335 473 0
-334 -335 -473 0
336 337 -474 0
-336 337 474 0
336 -337 474 0
-336 -337 -474 0
338 339 -475 0
-338 339 475 0
338 -339 475 0
-338 -339 -475 0
340 341 -476 0
-340 341 476 0
340 -341 476 0
-340 -341 -476 0
342 343 -477 0
-342 343 477 0
342 -343 477 0
-342 -343 -477 0
344 345 -478 0
-344 345 478 0
344 -345 478 0
-344 -345 -478 0
346 347 -479 0
-346 347 479 0
346 -347 479 0
-346 -347 -479 0
348 349 -480 0
-348 349 480 0
348 -349 480 0
-348 -349 -480 0
350 351 -481 0
-350 351 481 0
350 -351 481 0
-350 -351 -481 0
352 353 -482 0
-352 353 482 0
352 -353 482 0
-352 -353 -482 0
354 355 -483 0
-354 355 483 0
354 -355 483 0
-354 -355 -483 0
356 357 -484 0
-356 357 484 0
356 -357 484 0
-356 -357 -484 0
358 359 -485 0
-358 359 485 0
358 -359 485 0
-358 -359 -485 0
360 361 -486 0
-360 361 486 0
360 -361 486 0
-360 -361 -486 0
362 363 -487 0
-362 363 487 0
362 -363 487 0
-362 -363 -487 0
364 365 -488 0
-364 365 488 0
364 -365 488 0
-364 -365 -488 0
366 367 -489 0
-366 367 489 0
366 -367 489 0
-366 -367 -489 0
368 369 -490 0
-368 369 490 0
368 -369 490 0
-368 -369 -490 0
370 371 -491 0
-370 371 491 0
370 -371 491 0
-370 -371 -491 0
372 373 -492 0
-372 373 492 0
372 -373 492 0
-372 -373 -492 0
374 375 -493 0
-374 375 493 0
374 -375 493 0
-374 -375 -493 0
376 377 -494 0
-376 377 494 0
376 -377 494 0
-376 -377 -494 0
378 379 -495 0
-378 379 495 0
378 -379 495 0
-378 -379 -495 0
380 381 -496 0
-380 381 496 0
380 -381 496 0
-380 -381 -496 0
382 383 -497 0
-382 383 497 0
382 -383 497 0
-382 -383 -497 0
384 385 -498 0
-384 385 498 0
384 -385 498 0
-384 -385 -498 0
386 387 -499 0
-386 387 499 0
386 -387 499 0
-386 -387 -499 0
388 389 -500 0
-388 389 500 0
388 -389 500 0
-388 -389 -500 0
390 391 -501 0
-390 391 501 0
390 -391 501 0
-390 -391 -501 0
392 393 -502 0
-392 393 502 0
392 -393 502 0
-392 -393 -502 0
394 395 -503 0
-394 395 503 0
394 -395 503 0
-394 -395 -503 0
396 397 -504 0
-396 397 504 0
396 -397 504 0
-396 -397 -504 0
398 399 -505 0
-398 399 505 0
398 -399 505 0
-398 -399 -505 0
400 401 -506 0
-400 401 506 0
400 -401 506 0
-400 -401 -506 0
402 403 -507 0
-402 403 507 0
402 -403 507 0
-402 -403 -507 0
404 405 -508 0
-404 405 508 0
404 -405 508 0
-404 -405 -508 0
406 407 -509 0
-406 407 509 0
406 -407 509 0
-406 -407 -509 0
408 409 -510 0
-408 409 510 0
408 -409 510 0
-408 -409 -510 0
410 411 -511 0
-410 411 511 0
410 -411 511 0
-410 -411 -511 0
412 413 -512 0
-412 413 512 0
412 -413 512 0
-412 -413 -512 0
414 415 -513 0
-414 415 513 0
414 -415 513 0
-414 -415 -513 0
416 417 -514 0
-416 417 514 0
416 -417 514 0
-416 -417 -514 0
418 419 -515 0
-418 419 515 0
418 -419 515 0
-418 -419 -515 0
420 421 -516 0
-420 421 516 0
420 -421 516 0
-420 -421 -516 0
422 423 -517 0
-422 423 517 0
422 -423 517 0
-422 -423 -517 0
424 425 -518 0
-424 425 518 0
424 -425 518 0
-424 -425 -518 0
426 427 -519 0
-426 427 519 0
426 -427 519 0
-426 -427 -519 0
428 429 -520 0
-428 429 520 0
428 -429 520 0
-428 -429 -520 0
430 431 -521 0
-430 431 521 0
430 -431 521 0
-430 -431 -521 0
432 433 -522 0
-432 433 522 0
432 -433 522 0
-432 -433 -522 0
434 435 -523 0
-434 435 523 0
434 -435 523 0
-434 -435 -523 0
436 437 -524 0
-436 437 524 0
436 -437 524 0
-436 -437 -524 0
438 439 -525 0
-438 439 525 0
438 -439 525 0
-438 -439 -525 0
440 441 -526 0
-440 441 526 0
440 -441 526 0
-440 -441 -526 0
442 443 -527 0
-442 443 527 0
442 -443 527 0
-442 -443 -527 0
444 445 -528 0
-444 445 528 0
444 -445 528 0
-444 -445 -528 0
446 447 -529 0
-446 447 529 0
446 -447 529 0
-446 -447 -529 0
448 449 -530 0
-448 449 530 0
448 -449 530 0
-448 -449 -530 0
450 451 -531 0
-450 451 531 0
450 -451 531 0
-450 -451 -531 0
452 453 -532 0
-452 453 532 0
452 -453 532 0
-452 -453 -532 0
454 455 -533 0
-454 455 533 0
454 -455 533 0
-454 -455 -533 0
456 457 -534 0
-456 457 534 0
456 -457 534 0
-456 -457 -534 0
458 459 -535 0
-458 459 535 0
458 -459 535 0
-458 -459 -535 0
460 461 -536 0
-460 461 536 0
460 -461 536 0
-460 -461 -536 0
462 463 -537 0
-462 463 537 0
462 -463 537 0
-462 -463 -537 0
464 465 -538 0
-464 465 538 0
464 -465 538 0
-464 -465 -538 0
466 467 -539 0
-466 467 539 0
466 -467 539 0
-466 -467 -539 0
468 469 -540 0
-468 469 540 0
468 -469 540 0
-468 -469 -540 0
470 471 -541 0
-470 471 541 0
470 -471 541 0
-470 -471 -541 0
472 473 -542 0
-472 473 542 0
472 -473 542 0
-472 -473 -542 0
474 475 -543 0
-474 475 543 0
474 -475 543 0
-474 -475 -543 0
476 477 -544 0
-476 477 544 0
476 -477 544 0
-476 -477 -544 0
478 479 -545 0
-478 479 545 0
478 -479 545 0
-478 -479 -545 0
480 481 -546 0
-480 481 546 0
480 -481 546 0
-480 -481 -546 0
482 483 -547 0
-482 483 547 0
482 -483 547 0
-482 -483 -547 0
484 485 -548 0
-484 485 548 0
484 -485 548 0
-484 -485 -548 0
486 487 -549 0
-486 487 549 0
486 -487 549 0
-486 -487 -549 0
488 489 -550 0
-488 489 550 0
488 -489 550 0
-488 -489 -550 0
490 491 -551 0
-490 491 551 0
490 -491 551 0
-490 -491 -551 0
492 493 -552 0
-492 493 552 0
492 -493 552 0
-492 -493 -552 0
494 495 -553 0
-494 495 553 0
494 -495 553 0
-494 -495 -553 0
496 497 -554 0
-496 497 554 0
496 -497 554 0
-496 -497 -554 0
498 499 -555 0
-498 499 555 0
498 -499 555 0
-498 -499 -555 0
500 501 -556 0
-500 501 556 0
500 -501 556 0
-500 -501 -556 0
502 503 -557 0
-502 503 557 0
502 -503 557 0
-502 -503 -557 0
504 505 -558 0
-504 505 558 0
504 -505 558 0
-504 -505 -558 0
506 507 -559 0
-506 507 559 0
506 -507 559 0
-506 -507 -559 0
508 509 -560 0
-508 509 560 0
508 -509 560 0
-508 -509 -560 0
510 511 -561 0
-510 511 561 0
510 -511 561 0
-510 -511 -561 0
512 513 -562 0
-512 513 562 0
512 -513 562 0
-512 -513 -562 0
514 515 -563 0
-514 515 563 0
514 -515 563 0
-514 -515 -563 0
516 517 -564 0
-516 517 564 0
516 -517 564 0
-516 -517 -564 0
518 519 -565 0
-518 519 565 0
518 -519 565 0
-518 -519 -565 0
520 521 -566 0
-520 521 566 0
520 -521 566 0
-520 -521 -566 0
522 523 -567 0
-522 523 567 0
522 -523 567 0
-522 -523 -567 0
524 525 -568 0
-524 525 568 0
524 -525 568 0
-524 -525 -568 0
526 527 -569 0
-526 527 569 0
526 -527 569 0
-526 -527 -569 0
528 529 -570 0
-528 529 570 0
528 -529 570 0
-528 -529 -570 0
530 531 -571 0
-530 531 571 0
530 -531 571 0
-530 -531 -571 0
532 533 -572 0
-532 533 572 0
532 -533 572 0
-532 -533 -572 0
534 535 -573 0
-534 535 573 0
534 -535 573 0
-534 -535 -573 0
536 537 -574 0
-536 537 574 0
536 -537 574 0
-536 -537 -574 0
538 539 -575 0
-538 539 575 0
538 -539 575 0
-538 -539 -575 0
540 541 -576 0
-540 541 576 0
540 -541 576 0
-540 -541 -576 0
542 543 -577 0
-542 543 577 0
542 -543 577 0
-542 -543 -577 0
544 545 -578 0
-544 545 578 0
544 -545 578 0
-544 -545 -578 0
546 547 -579 0
-546 547 579 0
546 -547 579 0
-546 -547 -579 0
548 549 -580 0
-548 549 580 0
548 -549 580 0
-548 -549 -580 0
550 551 -581 0
-550 551 581 0
550 -551 581 0
-550 -551 -581 0
552 553 -582 0
-552 553 582 0
552 -553 582 0
-552 -553 -582 0
554 555 -583 0
-554 555 583 0
554 -555 583 0
-554 -555 -583 0
556 557 -584 0
-556 557 584 0
556 -557 584 0
-556 -557 -584 0
558 559 -585 0
-558 559 585 0
558 -559 585 0
-558 -559 -585 0
560 561 -586 0
-560 561 586 0
560 -561 586 0
-560 -561 -586 0
562 563 -587 0
-562 563 587 0
562 -563 587 0
-562 -563 -587 0
564 565 -588 0
-564 565 588 0
564 -565 588 0
-564 -565 -588 0
566 567 -589 0
-566 567 589 0
566 -567 589 0
-566 -567 -589 0
568 569 -590 0
-568 569 590 0
568 -569 590 0
-568 -569 -590 0
570 571 -591 0
-570 571 591 0
570 -571 591 0
-570 -571 -591 0
572 573 -592 0
-572 573 592 0
572 -573 592 0
-572 -573 -592 0
574 575 -593 0
-574 575 593 0
574 -575 593 0
-574 -575 -593 0
576 577 -594 0
-576 577 594 0
576 -577 594 0
-576 -577 -594 0
578 579 -595 0
-578 579 595 0
578 -579 595 0
-578 -579 -595 0
580 581 -596 0
-580 581 596 0
580 -581 596 0
-580 -581 -596 0
582 583 -597 0
-582 583 597 0
582 -583 597 0
-582 -583 -597 0
584 585 -598 0
-584 585 598 0
584 -585 598 0
-584 -585 -598 0
586 587 -599 0
-586 587 599 0
586 -587 599 0
-586 -587 -599 0
588 589 -600 0
-588 589 600 0
588 -589 600 0
-588 -589 -600 0
590 591 -601 0
-590 591 601 0
590 -591 601 0
-590 -591 -601 0
593 594 -602 0
-593 594 602 0
593 -594 602 0
-593 -594 -602 0
595 596 -603 0
-595 596 603 0
595 -596 603 0
-595 -596 -603 0
597 598 -604 0
-597 598 604 0
597 -598 604 0
-597 -598 -604 0
599 600 -605 0
-599 600 605 0
599 -600 605 0
-599 -600 -605 0
601 592 -606 0
-601 592 606 0
601 -592 606 0
-601 -592 -606 0
602 603 -607 0
-602 603 607 0
602 -603 607 0
-602 -603 -607 0
604 605 -608 0
-604 605 608 0
604 -605 608 0
-604 -605 -608 0
607 608 -609 0
-607 608 609 0
607 -608 609 0
-607 -608 -609 0
609 606 -305 0
-609 606 305 0
609 -606 305 0
-609 -606 -305 0
